% Instance for pentominoes model generated using https://github.com/zayenz/minizinc-pentominoes-generator
% Instance generated for board size 10 with 15 tiles using 17 as seed
% Generated board
%    5444cc1111
%    5ee44c1111
%    9eebb11111
%    99ee733211
%    99eegg2222
%    99degf2288
%    96eeef2288
%    966eef2288
%    966ee22288
%    966ee28888

size = 10;
tiles = 15;
expressions = [
    "( ([2 3 4 5 6 7 8 9 10 11 12 13 14 15 16]* 1{4} [2 3 4 5 6 7 8 9 10 11 12 13 14 15 16] [2 3 4 5 6 7 8 9 10 11 12 13 14 15 16]{6} 1{4} [2 3 4 5 6 7 8 9 10 11 12 13 14 15 16] [2 3 4 5 6 7 8 9 10 11 12 13 14 15 16]{5} 1{5} [2 3 4 5 6 7 8 9 10 11 12 13 14 15 16] [2 3 4 5 6 7 8 9 10 11 12 13 14 15 16]{8} 1{2} [2 3 4 5 6 7 8 9 10 11 12 13 14 15 16]*) | ([2 3 4 5 6 7 8 9 10 11 12 13 14 15 16]* 1{1} [2 3 4 5 6 7 8 9 10 11 12 13 14 15 16]{2} [2 3 4 5 6 7 8 9 10 11 12 13 14 15 16] [2 3 4 5 6 7 8 9 10 11 12 13 14 15 16]{7} 1{3} [2 3 4 5 6 7 8 9 10 11 12 13 14 15 16] [2 3 4 5 6 7 8 9 10 11 12 13 14 15 16]{7} 1{3} [2 3 4 5 6 7 8 9 10 11 12 13 14 15 16] [2 3 4 5 6 7 8 9 10 11 12 13 14 15 16]{6} 1{4} [2 3 4 5 6 7 8 9 10 11 12 13 14 15 16] [2 3 4 5 6 7 8 9 10 11 12 13 14 15 16]{6} 1{4} [2 3 4 5 6 7 8 9 10 11 12 13 14 15 16]*) | ([2 3 4 5 6 7 8 9 10 11 12 13 14 15 16]* 1{2} [2 3 4 5 6 7 8 9 10 11 12 13 14 15 16]{8} [2 3 4 5 6 7 8 9 10 11 12 13 14 15 16] 1{5} [2 3 4 5 6 7 8 9 10 11 12 13 14 15 16]{5} [2 3 4 5 6 7 8 9 10 11 12 13 14 15 16] 1{4} [2 3 4 5 6 7 8 9 10 11 12 13 14 15 16]{6} [2 3 4 5 6 7 8 9 10 11 12 13 14 15 16] 1{4} [2 3 4 5 6 7 8 9 10 11 12 13 14 15 16]*) | ([2 3 4 5 6 7 8 9 10 11 12 13 14 15 16]* 1{4} [2 3 4 5 6 7 8 9 10 11 12 13 14 15 16]{6} [2 3 4 5 6 7 8 9 10 11 12 13 14 15 16] 1{4} [2 3 4 5 6 7 8 9 10 11 12 13 14 15 16]{6} [2 3 4 5 6 7 8 9 10 11 12 13 14 15 16] 1{3} [2 3 4 5 6 7 8 9 10 11 12 13 14 15 16]{7} [2 3 4 5 6 7 8 9 10 11 12 13 14 15 16] 1{3} [2 3 4 5 6 7 8 9 10 11 12 13 14 15 16]{7} [2 3 4 5 6 7 8 9 10 11 12 13 14 15 16] [2 3 4 5 6 7 8 9 10 11 12 13 14 15 16]{2} 1{1} [2 3 4 5 6 7 8 9 10 11 12 13 14 15 16]*) | ([2 3 4 5 6 7 8 9 10 11 12 13 14 15 16]* 1{4} [2 3 4 5 6 7 8 9 10 11 12 13 14 15 16]{6} [2 3 4 5 6 7 8 9 10 11 12 13 14 15 16] 1{4} [2 3 4 5 6 7 8 9 10 11 12 13 14 15 16]{6} [2 3 4 5 6 7 8 9 10 11 12 13 14 15 16] 1{5} [2 3 4 5 6 7 8 9 10 11 12 13 14 15 16]{5} [2 3 4 5 6 7 8 9 10 11 12 13 14 15 16] 1{2} [2 3 4 5 6 7 8 9 10 11 12 13 14 15 16]*) | ([2 3 4 5 6 7 8 9 10 11 12 13 14 15 16]* 1{1} [2 3 4 5 6 7 8 9 10 11 12 13 14 15 16]{7} [2 3 4 5 6 7 8 9 10 11 12 13 14 15 16] 1{3} [2 3 4 5 6 7 8 9 10 11 12 13 14 15 16]{7} [2 3 4 5 6 7 8 9 10 11 12 13 14 15 16] 1{3} [2 3 4 5 6 7 8 9 10 11 12 13 14 15 16]{7} [2 3 4 5 6 7 8 9 10 11 12 13 14 15 16] 1{4} [2 3 4 5 6 7 8 9 10 11 12 13 14 15 16]{6} [2 3 4 5 6 7 8 9 10 11 12 13 14 15 16] 1{4} [2 3 4 5 6 7 8 9 10 11 12 13 14 15 16]*) | ([2 3 4 5 6 7 8 9 10 11 12 13 14 15 16]* 1{2} [2 3 4 5 6 7 8 9 10 11 12 13 14 15 16] [2 3 4 5 6 7 8 9 10 11 12 13 14 15 16]{5} 1{5} [2 3 4 5 6 7 8 9 10 11 12 13 14 15 16] [2 3 4 5 6 7 8 9 10 11 12 13 14 15 16]{6} 1{4} [2 3 4 5 6 7 8 9 10 11 12 13 14 15 16] [2 3 4 5 6 7 8 9 10 11 12 13 14 15 16]{6} 1{4} [2 3 4 5 6 7 8 9 10 11 12 13 14 15 16]*) | ([2 3 4 5 6 7 8 9 10 11 12 13 14 15 16]* 1{4} [2 3 4 5 6 7 8 9 10 11 12 13 14 15 16] [2 3 4 5 6 7 8 9 10 11 12 13 14 15 16]{6} 1{4} [2 3 4 5 6 7 8 9 10 11 12 13 14 15 16] [2 3 4 5 6 7 8 9 10 11 12 13 14 15 16]{7} 1{3} [2 3 4 5 6 7 8 9 10 11 12 13 14 15 16] [2 3 4 5 6 7 8 9 10 11 12 13 14 15 16]{7} 1{3} [2 3 4 5 6 7 8 9 10 11 12 13 14 15 16] [2 3 4 5 6 7 8 9 10 11 12 13 14 15 16]{7} 1{1} [2 3 4 5 6 7 8 9 10 11 12 13 14 15 16]*) )",
    "( ([1 3 4 5 6 7 8 9 10 11 12 13 14 15 16]* 2{1} [1 3 4 5 6 7 8 9 10 11 12 13 14 15 16]{2} [1 3 4 5 6 7 8 9 10 11 12 13 14 15 16] [1 3 4 5 6 7 8 9 10 11 12 13 14 15 16]{6} 2{4} [1 3 4 5 6 7 8 9 10 11 12 13 14 15 16] [1 3 4 5 6 7 8 9 10 11 12 13 14 15 16]{6} 2{2} [1 3 4 5 6 7 8 9 10 11 12 13 14 15 16]{2} [1 3 4 5 6 7 8 9 10 11 12 13 14 15 16] [1 3 4 5 6 7 8 9 10 11 12 13 14 15 16]{6} 2{2} [1 3 4 5 6 7 8 9 10 11 12 13 14 15 16]{2} [1 3 4 5 6 7 8 9 10 11 12 13 14 15 16] [1 3 4 5 6 7 8 9 10 11 12 13 14 15 16]{6} 2{2} [1 3 4 5 6 7 8 9 10 11 12 13 14 15 16]{2} [1 3 4 5 6 7 8 9 10 11 12 13 14 15 16] [1 3 4 5 6 7 8 9 10 11 12 13 14 15 16]{5} 2{3} [1 3 4 5 6 7 8 9 10 11 12 13 14 15 16]{2} [1 3 4 5 6 7 8 9 10 11 12 13 14 15 16] [1 3 4 5 6 7 8 9 10 11 12 13 14 15 16]{5} 2{1} [1 3 4 5 6 7 8 9 10 11 12 13 14 15 16]*) | ([1 3 4 5 6 7 8 9 10 11 12 13 14 15 16]* 2{2} [1 3 4 5 6 7 8 9 10 11 12 13 14 15 16]{8} [1 3 4 5 6 7 8 9 10 11 12 13 14 15 16] [1 3 4 5 6 7 8 9 10 11 12 13 14 15 16]{1} 2{5} [1 3 4 5 6 7 8 9 10 11 12 13 14 15 16]{4} [1 3 4 5 6 7 8 9 10 11 12 13 14 15 16] [1 3 4 5 6 7 8 9 10 11 12 13 14 15 16]{1} 2{6} [1 3 4 5 6 7 8 9 10 11 12 13 14 15 16]{3} [1 3 4 5 6 7 8 9 10 11 12 13 14 15 16] [1 3 4 5 6 7 8 9 10 11 12 13 14 15 16]{5} 2{1} [1 3 4 5 6 7 8 9 10 11 12 13 14 15 16]{4} [1 3 4 5 6 7 8 9 10 11 12 13 14 15 16] [1 3 4 5 6 7 8 9 10 11 12 13 14 15 16]{5} 2{1} [1 3 4 5 6 7 8 9 10 11 12 13 14 15 16]*) | ([1 3 4 5 6 7 8 9 10 11 12 13 14 15 16]* 2{1} [1 3 4 5 6 7 8 9 10 11 12 13 14 15 16]{5} [1 3 4 5 6 7 8 9 10 11 12 13 14 15 16] [1 3 4 5 6 7 8 9 10 11 12 13 14 15 16]{2} 2{3} [1 3 4 5 6 7 8 9 10 11 12 13 14 15 16]{5} [1 3 4 5 6 7 8 9 10 11 12 13 14 15 16] [1 3 4 5 6 7 8 9 10 11 12 13 14 15 16]{2} 2{2} [1 3 4 5 6 7 8 9 10 11 12 13 14 15 16]{6} [1 3 4 5 6 7 8 9 10 11 12 13 14 15 16] [1 3 4 5 6 7 8 9 10 11 12 13 14 15 16]{2} 2{2} [1 3 4 5 6 7 8 9 10 11 12 13 14 15 16]{6} [1 3 4 5 6 7 8 9 10 11 12 13 14 15 16] [1 3 4 5 6 7 8 9 10 11 12 13 14 15 16]{2} 2{2} [1 3 4 5 6 7 8 9 10 11 12 13 14 15 16]{6} [1 3 4 5 6 7 8 9 10 11 12 13 14 15 16] 2{4} [1 3 4 5 6 7 8 9 10 11 12 13 14 15 16]{6} [1 3 4 5 6 7 8 9 10 11 12 13 14 15 16] [1 3 4 5 6 7 8 9 10 11 12 13 14 15 16]{2} 2{1} [1 3 4 5 6 7 8 9 10 11 12 13 14 15 16]*) | ([1 3 4 5 6 7 8 9 10 11 12 13 14 15 16]* 2{1} [1 3 4 5 6 7 8 9 10 11 12 13 14 15 16]{5} [1 3 4 5 6 7 8 9 10 11 12 13 14 15 16] [1 3 4 5 6 7 8 9 10 11 12 13 14 15 16]{4} 2{1} [1 3 4 5 6 7 8 9 10 11 12 13 14 15 16]{5} [1 3 4 5 6 7 8 9 10 11 12 13 14 15 16] [1 3 4 5 6 7 8 9 10 11 12 13 14 15 16]{3} 2{6} [1 3 4 5 6 7 8 9 10 11 12 13 14 15 16]{1} [1 3 4 5 6 7 8 9 10 11 12 13 14 15 16] [1 3 4 5 6 7 8 9 10 11 12 13 14 15 16]{4} 2{5} [1 3 4 5 6 7 8 9 10 11 12 13 14 15 16]{1} [1 3 4 5 6 7 8 9 10 11 12 13 14 15 16] [1 3 4 5 6 7 8 9 10 11 12 13 14 15 16]{8} 2{2} [1 3 4 5 6 7 8 9 10 11 12 13 14 15 16]*) | ([1 3 4 5 6 7 8 9 10 11 12 13 14 15 16]* 2{1} [1 3 4 5 6 7 8 9 10 11 12 13 14 15 16]{7} [1 3 4 5 6 7 8 9 10 11 12 13 14 15 16] 2{4} [1 3 4 5 6 7 8 9 10 11 12 13 14 15 16]{6} [1 3 4 5 6 7 8 9 10 11 12 13 14 15 16] [1 3 4 5 6 7 8 9 10 11 12 13 14 15 16]{2} 2{2} [1 3 4 5 6 7 8 9 10 11 12 13 14 15 16]{6} [1 3 4 5 6 7 8 9 10 11 12 13 14 15 16] [1 3 4 5 6 7 8 9 10 11 12 13 14 15 16]{2} 2{2} [1 3 4 5 6 7 8 9 10 11 12 13 14 15 16]{6} [1 3 4 5 6 7 8 9 10 11 12 13 14 15 16] [1 3 4 5 6 7 8 9 10 11 12 13 14 15 16]{2} 2{2} [1 3 4 5 6 7 8 9 10 11 12 13 14 15 16]{6} [1 3 4 5 6 7 8 9 10 11 12 13 14 15 16] [1 3 4 5 6 7 8 9 10 11 12 13 14 15 16]{2} 2{3} [1 3 4 5 6 7 8 9 10 11 12 13 14 15 16]{5} [1 3 4 5 6 7 8 9 10 11 12 13 14 15 16] [1 3 4 5 6 7 8 9 10 11 12 13 14 15 16]{4} 2{1} [1 3 4 5 6 7 8 9 10 11 12 13 14 15 16]*) | ([1 3 4 5 6 7 8 9 10 11 12 13 14 15 16]* 2{2} [1 3 4 5 6 7 8 9 10 11 12 13 14 15 16] [1 3 4 5 6 7 8 9 10 11 12 13 14 15 16]{4} 2{5} [1 3 4 5 6 7 8 9 10 11 12 13 14 15 16]{1} [1 3 4 5 6 7 8 9 10 11 12 13 14 15 16] [1 3 4 5 6 7 8 9 10 11 12 13 14 15 16]{3} 2{6} [1 3 4 5 6 7 8 9 10 11 12 13 14 15 16]{1} [1 3 4 5 6 7 8 9 10 11 12 13 14 15 16] [1 3 4 5 6 7 8 9 10 11 12 13 14 15 16]{4} 2{1} [1 3 4 5 6 7 8 9 10 11 12 13 14 15 16]{5} [1 3 4 5 6 7 8 9 10 11 12 13 14 15 16] [1 3 4 5 6 7 8 9 10 11 12 13 14 15 16]{4} 2{1} [1 3 4 5 6 7 8 9 10 11 12 13 14 15 16]*) | ([1 3 4 5 6 7 8 9 10 11 12 13 14 15 16]* 2{1} [1 3 4 5 6 7 8 9 10 11 12 13 14 15 16]{4} [1 3 4 5 6 7 8 9 10 11 12 13 14 15 16] [1 3 4 5 6 7 8 9 10 11 12 13 14 15 16]{5} 2{3} [1 3 4 5 6 7 8 9 10 11 12 13 14 15 16]{2} [1 3 4 5 6 7 8 9 10 11 12 13 14 15 16] [1 3 4 5 6 7 8 9 10 11 12 13 14 15 16]{6} 2{2} [1 3 4 5 6 7 8 9 10 11 12 13 14 15 16]{2} [1 3 4 5 6 7 8 9 10 11 12 13 14 15 16] [1 3 4 5 6 7 8 9 10 11 12 13 14 15 16]{6} 2{2} [1 3 4 5 6 7 8 9 10 11 12 13 14 15 16]{2} [1 3 4 5 6 7 8 9 10 11 12 13 14 15 16] [1 3 4 5 6 7 8 9 10 11 12 13 14 15 16]{6} 2{2} [1 3 4 5 6 7 8 9 10 11 12 13 14 15 16]{2} [1 3 4 5 6 7 8 9 10 11 12 13 14 15 16] [1 3 4 5 6 7 8 9 10 11 12 13 14 15 16]{6} 2{4} [1 3 4 5 6 7 8 9 10 11 12 13 14 15 16] [1 3 4 5 6 7 8 9 10 11 12 13 14 15 16]{7} 2{1} [1 3 4 5 6 7 8 9 10 11 12 13 14 15 16]*) | ([1 3 4 5 6 7 8 9 10 11 12 13 14 15 16]* 2{1} [1 3 4 5 6 7 8 9 10 11 12 13 14 15 16]{4} [1 3 4 5 6 7 8 9 10 11 12 13 14 15 16] [1 3 4 5 6 7 8 9 10 11 12 13 14 15 16]{5} 2{1} [1 3 4 5 6 7 8 9 10 11 12 13 14 15 16]{4} [1 3 4 5 6 7 8 9 10 11 12 13 14 15 16] [1 3 4 5 6 7 8 9 10 11 12 13 14 15 16]{1} 2{6} [1 3 4 5 6 7 8 9 10 11 12 13 14 15 16]{3} [1 3 4 5 6 7 8 9 10 11 12 13 14 15 16] [1 3 4 5 6 7 8 9 10 11 12 13 14 15 16]{1} 2{5} [1 3 4 5 6 7 8 9 10 11 12 13 14 15 16]{4} [1 3 4 5 6 7 8 9 10 11 12 13 14 15 16] 2{2} [1 3 4 5 6 7 8 9 10 11 12 13 14 15 16]*) )",
    "( ([1 2 4 5 6 7 8 9 10 11 12 13 14 15 16]* 3{2} [1 2 4 5 6 7 8 9 10 11 12 13 14 15 16]*) | ([1 2 4 5 6 7 8 9 10 11 12 13 14 15 16]* 3{1} [1 2 4 5 6 7 8 9 10 11 12 13 14 15 16]{3} [1 2 4 5 6 7 8 9 10 11 12 13 14 15 16] [1 2 4 5 6 7 8 9 10 11 12 13 14 15 16]{6} 3{1} [1 2 4 5 6 7 8 9 10 11 12 13 14 15 16]*) | ([1 2 4 5 6 7 8 9 10 11 12 13 14 15 16]* 3{1} [1 2 4 5 6 7 8 9 10 11 12 13 14 15 16]{6} [1 2 4 5 6 7 8 9 10 11 12 13 14 15 16] [1 2 4 5 6 7 8 9 10 11 12 13 14 15 16]{3} 3{1} [1 2 4 5 6 7 8 9 10 11 12 13 14 15 16]*) )",
    "( ([1 2 3 5 6 7 8 9 10 11 12 13 14 15 16]* 4{3} [1 2 3 5 6 7 8 9 10 11 12 13 14 15 16]{6} [1 2 3 5 6 7 8 9 10 11 12 13 14 15 16] [1 2 3 5 6 7 8 9 10 11 12 13 14 15 16]{3} 4{2} [1 2 3 5 6 7 8 9 10 11 12 13 14 15 16]*) | ([1 2 3 5 6 7 8 9 10 11 12 13 14 15 16]* 4{1} [1 2 3 5 6 7 8 9 10 11 12 13 14 15 16] [1 2 3 5 6 7 8 9 10 11 12 13 14 15 16]{9} 4{1} [1 2 3 5 6 7 8 9 10 11 12 13 14 15 16] [1 2 3 5 6 7 8 9 10 11 12 13 14 15 16]{8} 4{2} [1 2 3 5 6 7 8 9 10 11 12 13 14 15 16] [1 2 3 5 6 7 8 9 10 11 12 13 14 15 16]{8} 4{1} [1 2 3 5 6 7 8 9 10 11 12 13 14 15 16]*) | ([1 2 3 5 6 7 8 9 10 11 12 13 14 15 16]* 4{2} [1 2 3 5 6 7 8 9 10 11 12 13 14 15 16]{3} [1 2 3 5 6 7 8 9 10 11 12 13 14 15 16] [1 2 3 5 6 7 8 9 10 11 12 13 14 15 16]{6} 4{3} [1 2 3 5 6 7 8 9 10 11 12 13 14 15 16]*) | ([1 2 3 5 6 7 8 9 10 11 12 13 14 15 16]* 4{1} [1 2 3 5 6 7 8 9 10 11 12 13 14 15 16]{8} [1 2 3 5 6 7 8 9 10 11 12 13 14 15 16] 4{2} [1 2 3 5 6 7 8 9 10 11 12 13 14 15 16]{8} [1 2 3 5 6 7 8 9 10 11 12 13 14 15 16] 4{1} [1 2 3 5 6 7 8 9 10 11 12 13 14 15 16]{9} [1 2 3 5 6 7 8 9 10 11 12 13 14 15 16] 4{1} [1 2 3 5 6 7 8 9 10 11 12 13 14 15 16]*) | ([1 2 3 5 6 7 8 9 10 11 12 13 14 15 16]* 4{3} [1 2 3 5 6 7 8 9 10 11 12 13 14 15 16]{1} [1 2 3 5 6 7 8 9 10 11 12 13 14 15 16] [1 2 3 5 6 7 8 9 10 11 12 13 14 15 16]{5} 4{2} [1 2 3 5 6 7 8 9 10 11 12 13 14 15 16]*) | ([1 2 3 5 6 7 8 9 10 11 12 13 14 15 16]* 4{1} [1 2 3 5 6 7 8 9 10 11 12 13 14 15 16]{9} [1 2 3 5 6 7 8 9 10 11 12 13 14 15 16] 4{1} [1 2 3 5 6 7 8 9 10 11 12 13 14 15 16]{9} [1 2 3 5 6 7 8 9 10 11 12 13 14 15 16] 4{2} [1 2 3 5 6 7 8 9 10 11 12 13 14 15 16]{8} [1 2 3 5 6 7 8 9 10 11 12 13 14 15 16] [1 2 3 5 6 7 8 9 10 11 12 13 14 15 16]{1} 4{1} [1 2 3 5 6 7 8 9 10 11 12 13 14 15 16]*) | ([1 2 3 5 6 7 8 9 10 11 12 13 14 15 16]* 4{2} [1 2 3 5 6 7 8 9 10 11 12 13 14 15 16]{5} [1 2 3 5 6 7 8 9 10 11 12 13 14 15 16] [1 2 3 5 6 7 8 9 10 11 12 13 14 15 16]{1} 4{3} [1 2 3 5 6 7 8 9 10 11 12 13 14 15 16]*) | ([1 2 3 5 6 7 8 9 10 11 12 13 14 15 16]* 4{1} [1 2 3 5 6 7 8 9 10 11 12 13 14 15 16]{1} [1 2 3 5 6 7 8 9 10 11 12 13 14 15 16] [1 2 3 5 6 7 8 9 10 11 12 13 14 15 16]{8} 4{2} [1 2 3 5 6 7 8 9 10 11 12 13 14 15 16] [1 2 3 5 6 7 8 9 10 11 12 13 14 15 16]{9} 4{1} [1 2 3 5 6 7 8 9 10 11 12 13 14 15 16] [1 2 3 5 6 7 8 9 10 11 12 13 14 15 16]{9} 4{1} [1 2 3 5 6 7 8 9 10 11 12 13 14 15 16]*) )",
    "( ([1 2 3 4 6 7 8 9 10 11 12 13 14 15 16]* 5{1} [1 2 3 4 6 7 8 9 10 11 12 13 14 15 16]{9} [1 2 3 4 6 7 8 9 10 11 12 13 14 15 16] 5{1} [1 2 3 4 6 7 8 9 10 11 12 13 14 15 16]*) | ([1 2 3 4 6 7 8 9 10 11 12 13 14 15 16]* 5{2} [1 2 3 4 6 7 8 9 10 11 12 13 14 15 16]*) | ([1 2 3 4 6 7 8 9 10 11 12 13 14 15 16]* 5{1} [1 2 3 4 6 7 8 9 10 11 12 13 14 15 16] [1 2 3 4 6 7 8 9 10 11 12 13 14 15 16]{9} 5{1} [1 2 3 4 6 7 8 9 10 11 12 13 14 15 16]*) )",
    "( ([1 2 3 4 5 7 8 9 10 11 12 13 14 15 16]* 6{1} [1 2 3 4 5 7 8 9 10 11 12 13 14 15 16]{8} [1 2 3 4 5 7 8 9 10 11 12 13 14 15 16] [1 2 3 4 5 7 8 9 10 11 12 13 14 15 16]{1} 6{2} [1 2 3 4 5 7 8 9 10 11 12 13 14 15 16]{7} [1 2 3 4 5 7 8 9 10 11 12 13 14 15 16] [1 2 3 4 5 7 8 9 10 11 12 13 14 15 16]{1} 6{2} [1 2 3 4 5 7 8 9 10 11 12 13 14 15 16]{7} [1 2 3 4 5 7 8 9 10 11 12 13 14 15 16] [1 2 3 4 5 7 8 9 10 11 12 13 14 15 16]{1} 6{2} [1 2 3 4 5 7 8 9 10 11 12 13 14 15 16]*) | ([1 2 3 4 5 7 8 9 10 11 12 13 14 15 16]* 6{4} [1 2 3 4 5 7 8 9 10 11 12 13 14 15 16]{6} [1 2 3 4 5 7 8 9 10 11 12 13 14 15 16] 6{3} [1 2 3 4 5 7 8 9 10 11 12 13 14 15 16]*) | ([1 2 3 4 5 7 8 9 10 11 12 13 14 15 16]* 6{2} [1 2 3 4 5 7 8 9 10 11 12 13 14 15 16]{1} [1 2 3 4 5 7 8 9 10 11 12 13 14 15 16] [1 2 3 4 5 7 8 9 10 11 12 13 14 15 16]{7} 6{2} [1 2 3 4 5 7 8 9 10 11 12 13 14 15 16]{1} [1 2 3 4 5 7 8 9 10 11 12 13 14 15 16] [1 2 3 4 5 7 8 9 10 11 12 13 14 15 16]{7} 6{2} [1 2 3 4 5 7 8 9 10 11 12 13 14 15 16]{1} [1 2 3 4 5 7 8 9 10 11 12 13 14 15 16] [1 2 3 4 5 7 8 9 10 11 12 13 14 15 16]{8} 6{1} [1 2 3 4 5 7 8 9 10 11 12 13 14 15 16]*) | ([1 2 3 4 5 7 8 9 10 11 12 13 14 15 16]* 6{3} [1 2 3 4 5 7 8 9 10 11 12 13 14 15 16] [1 2 3 4 5 7 8 9 10 11 12 13 14 15 16]{6} 6{4} [1 2 3 4 5 7 8 9 10 11 12 13 14 15 16]*) | ([1 2 3 4 5 7 8 9 10 11 12 13 14 15 16]* 6{1} [1 2 3 4 5 7 8 9 10 11 12 13 14 15 16]{1} [1 2 3 4 5 7 8 9 10 11 12 13 14 15 16] [1 2 3 4 5 7 8 9 10 11 12 13 14 15 16]{7} 6{2} [1 2 3 4 5 7 8 9 10 11 12 13 14 15 16]{1} [1 2 3 4 5 7 8 9 10 11 12 13 14 15 16] [1 2 3 4 5 7 8 9 10 11 12 13 14 15 16]{7} 6{2} [1 2 3 4 5 7 8 9 10 11 12 13 14 15 16]{1} [1 2 3 4 5 7 8 9 10 11 12 13 14 15 16] [1 2 3 4 5 7 8 9 10 11 12 13 14 15 16]{7} 6{2} [1 2 3 4 5 7 8 9 10 11 12 13 14 15 16]*) | ([1 2 3 4 5 7 8 9 10 11 12 13 14 15 16]* 6{4} [1 2 3 4 5 7 8 9 10 11 12 13 14 15 16] [1 2 3 4 5 7 8 9 10 11 12 13 14 15 16]{7} 6{3} [1 2 3 4 5 7 8 9 10 11 12 13 14 15 16]*) | ([1 2 3 4 5 7 8 9 10 11 12 13 14 15 16]* 6{2} [1 2 3 4 5 7 8 9 10 11 12 13 14 15 16]{7} [1 2 3 4 5 7 8 9 10 11 12 13 14 15 16] [1 2 3 4 5 7 8 9 10 11 12 13 14 15 16]{1} 6{2} [1 2 3 4 5 7 8 9 10 11 12 13 14 15 16]{7} [1 2 3 4 5 7 8 9 10 11 12 13 14 15 16] [1 2 3 4 5 7 8 9 10 11 12 13 14 15 16]{1} 6{2} [1 2 3 4 5 7 8 9 10 11 12 13 14 15 16]{7} [1 2 3 4 5 7 8 9 10 11 12 13 14 15 16] [1 2 3 4 5 7 8 9 10 11 12 13 14 15 16]{1} 6{1} [1 2 3 4 5 7 8 9 10 11 12 13 14 15 16]*) | ([1 2 3 4 5 7 8 9 10 11 12 13 14 15 16]* 6{3} [1 2 3 4 5 7 8 9 10 11 12 13 14 15 16]{7} [1 2 3 4 5 7 8 9 10 11 12 13 14 15 16] 6{4} [1 2 3 4 5 7 8 9 10 11 12 13 14 15 16]*) )",
    "( ([1 2 3 4 5 6 8 9 10 11 12 13 14 15 16]* 7{1} [1 2 3 4 5 6 8 9 10 11 12 13 14 15 16]*) )",
    "( ([1 2 3 4 5 6 7 9 10 11 12 13 14 15 16]* 8{2} [1 2 3 4 5 6 7 9 10 11 12 13 14 15 16] [1 2 3 4 5 6 7 9 10 11 12 13 14 15 16]{8} 8{2} [1 2 3 4 5 6 7 9 10 11 12 13 14 15 16] [1 2 3 4 5 6 7 9 10 11 12 13 14 15 16]{8} 8{2} [1 2 3 4 5 6 7 9 10 11 12 13 14 15 16] [1 2 3 4 5 6 7 9 10 11 12 13 14 15 16]{8} 8{2} [1 2 3 4 5 6 7 9 10 11 12 13 14 15 16] [1 2 3 4 5 6 7 9 10 11 12 13 14 15 16]{6} 8{4} [1 2 3 4 5 6 7 9 10 11 12 13 14 15 16]*) | ([1 2 3 4 5 6 7 9 10 11 12 13 14 15 16]* 8{1} [1 2 3 4 5 6 7 9 10 11 12 13 14 15 16]{9} [1 2 3 4 5 6 7 9 10 11 12 13 14 15 16] 8{1} [1 2 3 4 5 6 7 9 10 11 12 13 14 15 16]{9} [1 2 3 4 5 6 7 9 10 11 12 13 14 15 16] 8{5} [1 2 3 4 5 6 7 9 10 11 12 13 14 15 16]{5} [1 2 3 4 5 6 7 9 10 11 12 13 14 15 16] 8{5} [1 2 3 4 5 6 7 9 10 11 12 13 14 15 16]*) | ([1 2 3 4 5 6 7 9 10 11 12 13 14 15 16]* 8{4} [1 2 3 4 5 6 7 9 10 11 12 13 14 15 16]{6} [1 2 3 4 5 6 7 9 10 11 12 13 14 15 16] 8{2} [1 2 3 4 5 6 7 9 10 11 12 13 14 15 16]{8} [1 2 3 4 5 6 7 9 10 11 12 13 14 15 16] 8{2} [1 2 3 4 5 6 7 9 10 11 12 13 14 15 16]{8} [1 2 3 4 5 6 7 9 10 11 12 13 14 15 16] 8{2} [1 2 3 4 5 6 7 9 10 11 12 13 14 15 16]{8} [1 2 3 4 5 6 7 9 10 11 12 13 14 15 16] 8{2} [1 2 3 4 5 6 7 9 10 11 12 13 14 15 16]*) | ([1 2 3 4 5 6 7 9 10 11 12 13 14 15 16]* 8{5} [1 2 3 4 5 6 7 9 10 11 12 13 14 15 16] [1 2 3 4 5 6 7 9 10 11 12 13 14 15 16]{5} 8{5} [1 2 3 4 5 6 7 9 10 11 12 13 14 15 16] [1 2 3 4 5 6 7 9 10 11 12 13 14 15 16]{9} 8{1} [1 2 3 4 5 6 7 9 10 11 12 13 14 15 16] [1 2 3 4 5 6 7 9 10 11 12 13 14 15 16]{9} 8{1} [1 2 3 4 5 6 7 9 10 11 12 13 14 15 16]*) | ([1 2 3 4 5 6 7 9 10 11 12 13 14 15 16]* 8{2} [1 2 3 4 5 6 7 9 10 11 12 13 14 15 16]{8} [1 2 3 4 5 6 7 9 10 11 12 13 14 15 16] 8{2} [1 2 3 4 5 6 7 9 10 11 12 13 14 15 16]{8} [1 2 3 4 5 6 7 9 10 11 12 13 14 15 16] 8{2} [1 2 3 4 5 6 7 9 10 11 12 13 14 15 16]{8} [1 2 3 4 5 6 7 9 10 11 12 13 14 15 16] 8{2} [1 2 3 4 5 6 7 9 10 11 12 13 14 15 16]{8} [1 2 3 4 5 6 7 9 10 11 12 13 14 15 16] 8{4} [1 2 3 4 5 6 7 9 10 11 12 13 14 15 16]*) | ([1 2 3 4 5 6 7 9 10 11 12 13 14 15 16]* 8{1} [1 2 3 4 5 6 7 9 10 11 12 13 14 15 16] [1 2 3 4 5 6 7 9 10 11 12 13 14 15 16]{9} 8{1} [1 2 3 4 5 6 7 9 10 11 12 13 14 15 16] [1 2 3 4 5 6 7 9 10 11 12 13 14 15 16]{5} 8{5} [1 2 3 4 5 6 7 9 10 11 12 13 14 15 16] [1 2 3 4 5 6 7 9 10 11 12 13 14 15 16]{5} 8{5} [1 2 3 4 5 6 7 9 10 11 12 13 14 15 16]*) | ([1 2 3 4 5 6 7 9 10 11 12 13 14 15 16]* 8{4} [1 2 3 4 5 6 7 9 10 11 12 13 14 15 16] [1 2 3 4 5 6 7 9 10 11 12 13 14 15 16]{8} 8{2} [1 2 3 4 5 6 7 9 10 11 12 13 14 15 16] [1 2 3 4 5 6 7 9 10 11 12 13 14 15 16]{8} 8{2} [1 2 3 4 5 6 7 9 10 11 12 13 14 15 16] [1 2 3 4 5 6 7 9 10 11 12 13 14 15 16]{8} 8{2} [1 2 3 4 5 6 7 9 10 11 12 13 14 15 16] [1 2 3 4 5 6 7 9 10 11 12 13 14 15 16]{8} 8{2} [1 2 3 4 5 6 7 9 10 11 12 13 14 15 16]*) | ([1 2 3 4 5 6 7 9 10 11 12 13 14 15 16]* 8{5} [1 2 3 4 5 6 7 9 10 11 12 13 14 15 16]{5} [1 2 3 4 5 6 7 9 10 11 12 13 14 15 16] 8{5} [1 2 3 4 5 6 7 9 10 11 12 13 14 15 16]{5} [1 2 3 4 5 6 7 9 10 11 12 13 14 15 16] 8{1} [1 2 3 4 5 6 7 9 10 11 12 13 14 15 16]{9} [1 2 3 4 5 6 7 9 10 11 12 13 14 15 16] 8{1} [1 2 3 4 5 6 7 9 10 11 12 13 14 15 16]*) )",
    "( ([1 2 3 4 5 6 7 8 10 11 12 13 14 15 16]* 9{1} [1 2 3 4 5 6 7 8 10 11 12 13 14 15 16]{9} [1 2 3 4 5 6 7 8 10 11 12 13 14 15 16] 9{2} [1 2 3 4 5 6 7 8 10 11 12 13 14 15 16]{8} [1 2 3 4 5 6 7 8 10 11 12 13 14 15 16] 9{2} [1 2 3 4 5 6 7 8 10 11 12 13 14 15 16]{8} [1 2 3 4 5 6 7 8 10 11 12 13 14 15 16] 9{2} [1 2 3 4 5 6 7 8 10 11 12 13 14 15 16]{8} [1 2 3 4 5 6 7 8 10 11 12 13 14 15 16] 9{1} [1 2 3 4 5 6 7 8 10 11 12 13 14 15 16]{9} [1 2 3 4 5 6 7 8 10 11 12 13 14 15 16] 9{1} [1 2 3 4 5 6 7 8 10 11 12 13 14 15 16]{9} [1 2 3 4 5 6 7 8 10 11 12 13 14 15 16] 9{1} [1 2 3 4 5 6 7 8 10 11 12 13 14 15 16]{9} [1 2 3 4 5 6 7 8 10 11 12 13 14 15 16] 9{1} [1 2 3 4 5 6 7 8 10 11 12 13 14 15 16]*) | ([1 2 3 4 5 6 7 8 10 11 12 13 14 15 16]* 9{8} [1 2 3 4 5 6 7 8 10 11 12 13 14 15 16]{2} [1 2 3 4 5 6 7 8 10 11 12 13 14 15 16] [1 2 3 4 5 6 7 8 10 11 12 13 14 15 16]{4} 9{3} [1 2 3 4 5 6 7 8 10 11 12 13 14 15 16]*) | ([1 2 3 4 5 6 7 8 10 11 12 13 14 15 16]* 9{1} [1 2 3 4 5 6 7 8 10 11 12 13 14 15 16] [1 2 3 4 5 6 7 8 10 11 12 13 14 15 16]{9} 9{1} [1 2 3 4 5 6 7 8 10 11 12 13 14 15 16] [1 2 3 4 5 6 7 8 10 11 12 13 14 15 16]{9} 9{1} [1 2 3 4 5 6 7 8 10 11 12 13 14 15 16] [1 2 3 4 5 6 7 8 10 11 12 13 14 15 16]{9} 9{1} [1 2 3 4 5 6 7 8 10 11 12 13 14 15 16] [1 2 3 4 5 6 7 8 10 11 12 13 14 15 16]{8} 9{2} [1 2 3 4 5 6 7 8 10 11 12 13 14 15 16] [1 2 3 4 5 6 7 8 10 11 12 13 14 15 16]{8} 9{2} [1 2 3 4 5 6 7 8 10 11 12 13 14 15 16] [1 2 3 4 5 6 7 8 10 11 12 13 14 15 16]{8} 9{2} [1 2 3 4 5 6 7 8 10 11 12 13 14 15 16] [1 2 3 4 5 6 7 8 10 11 12 13 14 15 16]{9} 9{1} [1 2 3 4 5 6 7 8 10 11 12 13 14 15 16]*) | ([1 2 3 4 5 6 7 8 10 11 12 13 14 15 16]* 9{3} [1 2 3 4 5 6 7 8 10 11 12 13 14 15 16]{4} [1 2 3 4 5 6 7 8 10 11 12 13 14 15 16] [1 2 3 4 5 6 7 8 10 11 12 13 14 15 16]{2} 9{8} [1 2 3 4 5 6 7 8 10 11 12 13 14 15 16]*) | ([1 2 3 4 5 6 7 8 10 11 12 13 14 15 16]* 9{1} [1 2 3 4 5 6 7 8 10 11 12 13 14 15 16] [1 2 3 4 5 6 7 8 10 11 12 13 14 15 16]{8} 9{2} [1 2 3 4 5 6 7 8 10 11 12 13 14 15 16] [1 2 3 4 5 6 7 8 10 11 12 13 14 15 16]{8} 9{2} [1 2 3 4 5 6 7 8 10 11 12 13 14 15 16] [1 2 3 4 5 6 7 8 10 11 12 13 14 15 16]{8} 9{2} [1 2 3 4 5 6 7 8 10 11 12 13 14 15 16] [1 2 3 4 5 6 7 8 10 11 12 13 14 15 16]{9} 9{1} [1 2 3 4 5 6 7 8 10 11 12 13 14 15 16] [1 2 3 4 5 6 7 8 10 11 12 13 14 15 16]{9} 9{1} [1 2 3 4 5 6 7 8 10 11 12 13 14 15 16] [1 2 3 4 5 6 7 8 10 11 12 13 14 15 16]{9} 9{1} [1 2 3 4 5 6 7 8 10 11 12 13 14 15 16] [1 2 3 4 5 6 7 8 10 11 12 13 14 15 16]{9} 9{1} [1 2 3 4 5 6 7 8 10 11 12 13 14 15 16]*) | ([1 2 3 4 5 6 7 8 10 11 12 13 14 15 16]* 9{8} [1 2 3 4 5 6 7 8 10 11 12 13 14 15 16] [1 2 3 4 5 6 7 8 10 11 12 13 14 15 16]{3} 9{3} [1 2 3 4 5 6 7 8 10 11 12 13 14 15 16]*) | ([1 2 3 4 5 6 7 8 10 11 12 13 14 15 16]* 9{1} [1 2 3 4 5 6 7 8 10 11 12 13 14 15 16]{9} [1 2 3 4 5 6 7 8 10 11 12 13 14 15 16] 9{1} [1 2 3 4 5 6 7 8 10 11 12 13 14 15 16]{9} [1 2 3 4 5 6 7 8 10 11 12 13 14 15 16] 9{1} [1 2 3 4 5 6 7 8 10 11 12 13 14 15 16]{9} [1 2 3 4 5 6 7 8 10 11 12 13 14 15 16] 9{1} [1 2 3 4 5 6 7 8 10 11 12 13 14 15 16]{9} [1 2 3 4 5 6 7 8 10 11 12 13 14 15 16] 9{2} [1 2 3 4 5 6 7 8 10 11 12 13 14 15 16]{8} [1 2 3 4 5 6 7 8 10 11 12 13 14 15 16] 9{2} [1 2 3 4 5 6 7 8 10 11 12 13 14 15 16]{8} [1 2 3 4 5 6 7 8 10 11 12 13 14 15 16] 9{2} [1 2 3 4 5 6 7 8 10 11 12 13 14 15 16]{8} [1 2 3 4 5 6 7 8 10 11 12 13 14 15 16] 9{1} [1 2 3 4 5 6 7 8 10 11 12 13 14 15 16]*) | ([1 2 3 4 5 6 7 8 10 11 12 13 14 15 16]* 9{3} [1 2 3 4 5 6 7 8 10 11 12 13 14 15 16]{3} [1 2 3 4 5 6 7 8 10 11 12 13 14 15 16] 9{8} [1 2 3 4 5 6 7 8 10 11 12 13 14 15 16]*) )",
    "( ([1 2 3 4 5 6 7 8 9 11 12 13 14 15 16]* 10{2} [1 2 3 4 5 6 7 8 9 11 12 13 14 15 16]*) | ([1 2 3 4 5 6 7 8 9 11 12 13 14 15 16]* 10{1} [1 2 3 4 5 6 7 8 9 11 12 13 14 15 16]{2} [1 2 3 4 5 6 7 8 9 11 12 13 14 15 16] [1 2 3 4 5 6 7 8 9 11 12 13 14 15 16]{7} 10{1} [1 2 3 4 5 6 7 8 9 11 12 13 14 15 16]*) | ([1 2 3 4 5 6 7 8 9 11 12 13 14 15 16]* 10{1} [1 2 3 4 5 6 7 8 9 11 12 13 14 15 16]{7} [1 2 3 4 5 6 7 8 9 11 12 13 14 15 16] [1 2 3 4 5 6 7 8 9 11 12 13 14 15 16]{2} 10{1} [1 2 3 4 5 6 7 8 9 11 12 13 14 15 16]*) )",
    "( ([1 2 3 4 5 6 7 8 9 10 12 13 14 15 16]* 11{2} [1 2 3 4 5 6 7 8 9 10 12 13 14 15 16]{4} [1 2 3 4 5 6 7 8 9 10 12 13 14 15 16] [1 2 3 4 5 6 7 8 9 10 12 13 14 15 16]{5} 11{1} [1 2 3 4 5 6 7 8 9 10 12 13 14 15 16]*) | ([1 2 3 4 5 6 7 8 9 10 12 13 14 15 16]* 11{1} [1 2 3 4 5 6 7 8 9 10 12 13 14 15 16] [1 2 3 4 5 6 7 8 9 10 12 13 14 15 16]{8} 11{2} [1 2 3 4 5 6 7 8 9 10 12 13 14 15 16]*) | ([1 2 3 4 5 6 7 8 9 10 12 13 14 15 16]* 11{1} [1 2 3 4 5 6 7 8 9 10 12 13 14 15 16]{5} [1 2 3 4 5 6 7 8 9 10 12 13 14 15 16] [1 2 3 4 5 6 7 8 9 10 12 13 14 15 16]{4} 11{2} [1 2 3 4 5 6 7 8 9 10 12 13 14 15 16]*) | ([1 2 3 4 5 6 7 8 9 10 12 13 14 15 16]* 11{2} [1 2 3 4 5 6 7 8 9 10 12 13 14 15 16]{8} [1 2 3 4 5 6 7 8 9 10 12 13 14 15 16] 11{1} [1 2 3 4 5 6 7 8 9 10 12 13 14 15 16]*) | ([1 2 3 4 5 6 7 8 9 10 12 13 14 15 16]* 11{2} [1 2 3 4 5 6 7 8 9 10 12 13 14 15 16]{4} [1 2 3 4 5 6 7 8 9 10 12 13 14 15 16] [1 2 3 4 5 6 7 8 9 10 12 13 14 15 16]{4} 11{1} [1 2 3 4 5 6 7 8 9 10 12 13 14 15 16]*) | ([1 2 3 4 5 6 7 8 9 10 12 13 14 15 16]* 11{1} [1 2 3 4 5 6 7 8 9 10 12 13 14 15 16]{9} [1 2 3 4 5 6 7 8 9 10 12 13 14 15 16] 11{2} [1 2 3 4 5 6 7 8 9 10 12 13 14 15 16]*) | ([1 2 3 4 5 6 7 8 9 10 12 13 14 15 16]* 11{1} [1 2 3 4 5 6 7 8 9 10 12 13 14 15 16]{4} [1 2 3 4 5 6 7 8 9 10 12 13 14 15 16] [1 2 3 4 5 6 7 8 9 10 12 13 14 15 16]{4} 11{2} [1 2 3 4 5 6 7 8 9 10 12 13 14 15 16]*) | ([1 2 3 4 5 6 7 8 9 10 12 13 14 15 16]* 11{2} [1 2 3 4 5 6 7 8 9 10 12 13 14 15 16] [1 2 3 4 5 6 7 8 9 10 12 13 14 15 16]{9} 11{1} [1 2 3 4 5 6 7 8 9 10 12 13 14 15 16]*) )",
    "( ([1 2 3 4 5 6 7 8 9 10 11 13 14 15 16]* 12{1} [1 2 3 4 5 6 7 8 9 10 11 13 14 15 16]*) )",
    "( ([1 2 3 4 5 6 7 8 9 10 11 12 14 15 16]* 13{2} [1 2 3 4 5 6 7 8 9 10 11 12 14 15 16]{7} [1 2 3 4 5 6 7 8 9 10 11 12 14 15 16] [1 2 3 4 5 6 7 8 9 10 11 12 14 15 16]{1} 13{2} [1 2 3 4 5 6 7 8 9 10 11 12 14 15 16]{7} [1 2 3 4 5 6 7 8 9 10 11 12 14 15 16] [1 2 3 4 5 6 7 8 9 10 11 12 14 15 16]{2} 13{2} [1 2 3 4 5 6 7 8 9 10 11 12 14 15 16]{6} [1 2 3 4 5 6 7 8 9 10 11 12 14 15 16] [1 2 3 4 5 6 7 8 9 10 11 12 14 15 16]{2} 13{2} [1 2 3 4 5 6 7 8 9 10 11 12 14 15 16]{6} [1 2 3 4 5 6 7 8 9 10 11 12 14 15 16] [1 2 3 4 5 6 7 8 9 10 11 12 14 15 16]{3} 13{1} [1 2 3 4 5 6 7 8 9 10 11 12 14 15 16]{6} [1 2 3 4 5 6 7 8 9 10 11 12 14 15 16] [1 2 3 4 5 6 7 8 9 10 11 12 14 15 16]{2} 13{3} [1 2 3 4 5 6 7 8 9 10 11 12 14 15 16]{5} [1 2 3 4 5 6 7 8 9 10 11 12 14 15 16] [1 2 3 4 5 6 7 8 9 10 11 12 14 15 16]{3} 13{2} [1 2 3 4 5 6 7 8 9 10 11 12 14 15 16]{5} [1 2 3 4 5 6 7 8 9 10 11 12 14 15 16] [1 2 3 4 5 6 7 8 9 10 11 12 14 15 16]{3} 13{2} [1 2 3 4 5 6 7 8 9 10 11 12 14 15 16]{5} [1 2 3 4 5 6 7 8 9 10 11 12 14 15 16] [1 2 3 4 5 6 7 8 9 10 11 12 14 15 16]{3} 13{2} [1 2 3 4 5 6 7 8 9 10 11 12 14 15 16]*) | ([1 2 3 4 5 6 7 8 9 10 11 12 14 15 16]* 13{2} [1 2 3 4 5 6 7 8 9 10 11 12 14 15 16]{1} [1 2 3 4 5 6 7 8 9 10 11 12 14 15 16] [1 2 3 4 5 6 7 8 9 10 11 12 14 15 16]{3} 13{1} [1 2 3 4 5 6 7 8 9 10 11 12 14 15 16]{1} 13{4} [1 2 3 4 5 6 7 8 9 10 11 12 14 15 16]{1} [1 2 3 4 5 6 7 8 9 10 11 12 14 15 16] 13{7} [1 2 3 4 5 6 7 8 9 10 11 12 14 15 16]{3} [1 2 3 4 5 6 7 8 9 10 11 12 14 15 16] 13{4} [1 2 3 4 5 6 7 8 9 10 11 12 14 15 16]*) | ([1 2 3 4 5 6 7 8 9 10 11 12 14 15 16]* 13{2} [1 2 3 4 5 6 7 8 9 10 11 12 14 15 16]{3} [1 2 3 4 5 6 7 8 9 10 11 12 14 15 16] [1 2 3 4 5 6 7 8 9 10 11 12 14 15 16]{5} 13{2} [1 2 3 4 5 6 7 8 9 10 11 12 14 15 16]{3} [1 2 3 4 5 6 7 8 9 10 11 12 14 15 16] [1 2 3 4 5 6 7 8 9 10 11 12 14 15 16]{5} 13{2} [1 2 3 4 5 6 7 8 9 10 11 12 14 15 16]{3} [1 2 3 4 5 6 7 8 9 10 11 12 14 15 16] [1 2 3 4 5 6 7 8 9 10 11 12 14 15 16]{5} 13{3} [1 2 3 4 5 6 7 8 9 10 11 12 14 15 16]{2} [1 2 3 4 5 6 7 8 9 10 11 12 14 15 16] [1 2 3 4 5 6 7 8 9 10 11 12 14 15 16]{6} 13{1} [1 2 3 4 5 6 7 8 9 10 11 12 14 15 16]{3} [1 2 3 4 5 6 7 8 9 10 11 12 14 15 16] [1 2 3 4 5 6 7 8 9 10 11 12 14 15 16]{6} 13{2} [1 2 3 4 5 6 7 8 9 10 11 12 14 15 16]{2} [1 2 3 4 5 6 7 8 9 10 11 12 14 15 16] [1 2 3 4 5 6 7 8 9 10 11 12 14 15 16]{6} 13{2} [1 2 3 4 5 6 7 8 9 10 11 12 14 15 16]{2} [1 2 3 4 5 6 7 8 9 10 11 12 14 15 16] [1 2 3 4 5 6 7 8 9 10 11 12 14 15 16]{7} 13{2} [1 2 3 4 5 6 7 8 9 10 11 12 14 15 16]{1} [1 2 3 4 5 6 7 8 9 10 11 12 14 15 16] [1 2 3 4 5 6 7 8 9 10 11 12 14 15 16]{7} 13{2} [1 2 3 4 5 6 7 8 9 10 11 12 14 15 16]*) | ([1 2 3 4 5 6 7 8 9 10 11 12 14 15 16]* 13{4} [1 2 3 4 5 6 7 8 9 10 11 12 14 15 16] [1 2 3 4 5 6 7 8 9 10 11 12 14 15 16]{3} 13{7} [1 2 3 4 5 6 7 8 9 10 11 12 14 15 16] [1 2 3 4 5 6 7 8 9 10 11 12 14 15 16]{1} 13{4} [1 2 3 4 5 6 7 8 9 10 11 12 14 15 16]{1} 13{1} [1 2 3 4 5 6 7 8 9 10 11 12 14 15 16]{3} [1 2 3 4 5 6 7 8 9 10 11 12 14 15 16] [1 2 3 4 5 6 7 8 9 10 11 12 14 15 16]{1} 13{2} [1 2 3 4 5 6 7 8 9 10 11 12 14 15 16]*) | ([1 2 3 4 5 6 7 8 9 10 11 12 14 15 16]* 13{2} [1 2 3 4 5 6 7 8 9 10 11 12 14 15 16]{1} [1 2 3 4 5 6 7 8 9 10 11 12 14 15 16] [1 2 3 4 5 6 7 8 9 10 11 12 14 15 16]{7} 13{2} [1 2 3 4 5 6 7 8 9 10 11 12 14 15 16]{1} [1 2 3 4 5 6 7 8 9 10 11 12 14 15 16] [1 2 3 4 5 6 7 8 9 10 11 12 14 15 16]{6} 13{2} [1 2 3 4 5 6 7 8 9 10 11 12 14 15 16]{2} [1 2 3 4 5 6 7 8 9 10 11 12 14 15 16] [1 2 3 4 5 6 7 8 9 10 11 12 14 15 16]{6} 13{2} [1 2 3 4 5 6 7 8 9 10 11 12 14 15 16]{2} [1 2 3 4 5 6 7 8 9 10 11 12 14 15 16] [1 2 3 4 5 6 7 8 9 10 11 12 14 15 16]{6} 13{1} [1 2 3 4 5 6 7 8 9 10 11 12 14 15 16]{3} [1 2 3 4 5 6 7 8 9 10 11 12 14 15 16] [1 2 3 4 5 6 7 8 9 10 11 12 14 15 16]{5} 13{3} [1 2 3 4 5 6 7 8 9 10 11 12 14 15 16]{2} [1 2 3 4 5 6 7 8 9 10 11 12 14 15 16] [1 2 3 4 5 6 7 8 9 10 11 12 14 15 16]{5} 13{2} [1 2 3 4 5 6 7 8 9 10 11 12 14 15 16]{3} [1 2 3 4 5 6 7 8 9 10 11 12 14 15 16] [1 2 3 4 5 6 7 8 9 10 11 12 14 15 16]{5} 13{2} [1 2 3 4 5 6 7 8 9 10 11 12 14 15 16]{3} [1 2 3 4 5 6 7 8 9 10 11 12 14 15 16] [1 2 3 4 5 6 7 8 9 10 11 12 14 15 16]{5} 13{2} [1 2 3 4 5 6 7 8 9 10 11 12 14 15 16]*) | ([1 2 3 4 5 6 7 8 9 10 11 12 14 15 16]* 13{2} [1 2 3 4 5 6 7 8 9 10 11 12 14 15 16]{7} [1 2 3 4 5 6 7 8 9 10 11 12 14 15 16] [1 2 3 4 5 6 7 8 9 10 11 12 14 15 16]{1} 13{4} [1 2 3 4 5 6 7 8 9 10 11 12 14 15 16]{1} 13{1} [1 2 3 4 5 6 7 8 9 10 11 12 14 15 16]{3} [1 2 3 4 5 6 7 8 9 10 11 12 14 15 16] [1 2 3 4 5 6 7 8 9 10 11 12 14 15 16]{3} 13{7} [1 2 3 4 5 6 7 8 9 10 11 12 14 15 16] [1 2 3 4 5 6 7 8 9 10 11 12 14 15 16]{6} 13{4} [1 2 3 4 5 6 7 8 9 10 11 12 14 15 16]*) | ([1 2 3 4 5 6 7 8 9 10 11 12 14 15 16]* 13{2} [1 2 3 4 5 6 7 8 9 10 11 12 14 15 16]{5} [1 2 3 4 5 6 7 8 9 10 11 12 14 15 16] [1 2 3 4 5 6 7 8 9 10 11 12 14 15 16]{3} 13{2} [1 2 3 4 5 6 7 8 9 10 11 12 14 15 16]{5} [1 2 3 4 5 6 7 8 9 10 11 12 14 15 16] [1 2 3 4 5 6 7 8 9 10 11 12 14 15 16]{3} 13{2} [1 2 3 4 5 6 7 8 9 10 11 12 14 15 16]{5} [1 2 3 4 5 6 7 8 9 10 11 12 14 15 16] [1 2 3 4 5 6 7 8 9 10 11 12 14 15 16]{2} 13{3} [1 2 3 4 5 6 7 8 9 10 11 12 14 15 16]{5} [1 2 3 4 5 6 7 8 9 10 11 12 14 15 16] [1 2 3 4 5 6 7 8 9 10 11 12 14 15 16]{3} 13{1} [1 2 3 4 5 6 7 8 9 10 11 12 14 15 16]{6} [1 2 3 4 5 6 7 8 9 10 11 12 14 15 16] [1 2 3 4 5 6 7 8 9 10 11 12 14 15 16]{2} 13{2} [1 2 3 4 5 6 7 8 9 10 11 12 14 15 16]{6} [1 2 3 4 5 6 7 8 9 10 11 12 14 15 16] [1 2 3 4 5 6 7 8 9 10 11 12 14 15 16]{2} 13{2} [1 2 3 4 5 6 7 8 9 10 11 12 14 15 16]{6} [1 2 3 4 5 6 7 8 9 10 11 12 14 15 16] [1 2 3 4 5 6 7 8 9 10 11 12 14 15 16]{1} 13{2} [1 2 3 4 5 6 7 8 9 10 11 12 14 15 16]{7} [1 2 3 4 5 6 7 8 9 10 11 12 14 15 16] [1 2 3 4 5 6 7 8 9 10 11 12 14 15 16]{1} 13{2} [1 2 3 4 5 6 7 8 9 10 11 12 14 15 16]*) | ([1 2 3 4 5 6 7 8 9 10 11 12 14 15 16]* 13{4} [1 2 3 4 5 6 7 8 9 10 11 12 14 15 16]{6} [1 2 3 4 5 6 7 8 9 10 11 12 14 15 16] 13{7} [1 2 3 4 5 6 7 8 9 10 11 12 14 15 16]{3} [1 2 3 4 5 6 7 8 9 10 11 12 14 15 16] [1 2 3 4 5 6 7 8 9 10 11 12 14 15 16]{3} 13{1} [1 2 3 4 5 6 7 8 9 10 11 12 14 15 16]{1} 13{4} [1 2 3 4 5 6 7 8 9 10 11 12 14 15 16]{1} [1 2 3 4 5 6 7 8 9 10 11 12 14 15 16] [1 2 3 4 5 6 7 8 9 10 11 12 14 15 16]{7} 13{2} [1 2 3 4 5 6 7 8 9 10 11 12 14 15 16]*) )",
    "( ([1 2 3 4 5 6 7 8 9 10 11 12 13 15 16]* 14{1} [1 2 3 4 5 6 7 8 9 10 11 12 13 15 16]{4} [1 2 3 4 5 6 7 8 9 10 11 12 13 15 16] [1 2 3 4 5 6 7 8 9 10 11 12 13 15 16]{5} 14{1} [1 2 3 4 5 6 7 8 9 10 11 12 13 15 16]{4} [1 2 3 4 5 6 7 8 9 10 11 12 13 15 16] [1 2 3 4 5 6 7 8 9 10 11 12 13 15 16]{5} 14{1} [1 2 3 4 5 6 7 8 9 10 11 12 13 15 16]*) | ([1 2 3 4 5 6 7 8 9 10 11 12 13 15 16]* 14{3} [1 2 3 4 5 6 7 8 9 10 11 12 13 15 16]*) | ([1 2 3 4 5 6 7 8 9 10 11 12 13 15 16]* 14{1} [1 2 3 4 5 6 7 8 9 10 11 12 13 15 16]{5} [1 2 3 4 5 6 7 8 9 10 11 12 13 15 16] [1 2 3 4 5 6 7 8 9 10 11 12 13 15 16]{4} 14{1} [1 2 3 4 5 6 7 8 9 10 11 12 13 15 16]{5} [1 2 3 4 5 6 7 8 9 10 11 12 13 15 16] [1 2 3 4 5 6 7 8 9 10 11 12 13 15 16]{4} 14{1} [1 2 3 4 5 6 7 8 9 10 11 12 13 15 16]*) )",
    "( ([1 2 3 4 5 6 7 8 9 10 11 12 13 14 16]* 15{2} [1 2 3 4 5 6 7 8 9 10 11 12 13 14 16]{4} [1 2 3 4 5 6 7 8 9 10 11 12 13 14 16] [1 2 3 4 5 6 7 8 9 10 11 12 13 14 16]{4} 15{1} [1 2 3 4 5 6 7 8 9 10 11 12 13 14 16]*) | ([1 2 3 4 5 6 7 8 9 10 11 12 13 14 16]* 15{2} [1 2 3 4 5 6 7 8 9 10 11 12 13 14 16]{4} [1 2 3 4 5 6 7 8 9 10 11 12 13 14 16] [1 2 3 4 5 6 7 8 9 10 11 12 13 14 16]{5} 15{1} [1 2 3 4 5 6 7 8 9 10 11 12 13 14 16]*) | ([1 2 3 4 5 6 7 8 9 10 11 12 13 14 16]* 15{1} [1 2 3 4 5 6 7 8 9 10 11 12 13 14 16]{4} [1 2 3 4 5 6 7 8 9 10 11 12 13 14 16] [1 2 3 4 5 6 7 8 9 10 11 12 13 14 16]{4} 15{2} [1 2 3 4 5 6 7 8 9 10 11 12 13 14 16]*) | ([1 2 3 4 5 6 7 8 9 10 11 12 13 14 16]* 15{1} [1 2 3 4 5 6 7 8 9 10 11 12 13 14 16]{5} [1 2 3 4 5 6 7 8 9 10 11 12 13 14 16] [1 2 3 4 5 6 7 8 9 10 11 12 13 14 16]{4} 15{2} [1 2 3 4 5 6 7 8 9 10 11 12 13 14 16]*) )",
];
